p cnf 109 361
-3 1 0
-3 2 0
-1 -2 3 0
-5 6 -7 0
5 -6 -7 0
-5 -6 7 0
5 6 7 0
-8 -7 0
-8 -5 0
7 5 8 0
9 -4 0
9 8 0
4 -8 -9 0
-11 9 0
-11 -10 0
-9 10 11 0
12 3 0
12 -11 0
-3 11 -12 0
13 14 -15 0
-13 -14 -15 0
13 -14 15 0
-13 14 15 0
-12 15 -16 0
12 -15 -16 0
-12 -15 16 0
12 15 16 0
5 17 -18 0
-5 -17 -18 0
5 -17 18 0
-5 17 18 0
-18 11 -19 0
18 -11 -19 0
-18 -11 19 0
18 11 19 0
20 -14 -21 0
-20 14 -21 0
20 14 21 0
-20 -14 21 0
-22 19 0
-22 -21 0
-19 21 22 0
25 23 0
25 -24 0
-23 24 -25 0
-26 -25 0
-26 -13 0
25 13 26 0
-24 -8 -27 0
24 8 -27 0
-24 8 27 0
24 -8 27 0
27 -11 -28 0
-27 11 -28 0
27 11 28 0
-27 -11 28 0
-30 -29 0
-30 -2 0
29 2 30 0
31 -24 0
31 -30 0
24 30 -31 0
14 -31 -32 0
-14 31 -32 0
14 31 32 0
-14 -31 32 0
33 28 0
33 32 0
-28 -32 -33 0
-34 -26 0
-34 33 0
26 -33 34 0
-35 -22 0
-35 34 0
22 -34 35 0
-16 35 -36 0
16 -35 -36 0
-16 -35 36 0
16 35 36 0
-37 13 0
-37 -25 0
-13 25 37 0
-38 -39 -40 0
38 39 -40 0
-38 39 40 0
38 -39 40 0
-41 37 0
-41 40 0
-37 -40 41 0
-42 36 0
-42 -41 0
-36 41 42 0
-43 -20 0
-43 -6 0
20 6 43 0
-3 17 -44 0
3 -17 -44 0
-3 -17 44 0
3 17 44 0
-13 11 -45 0
13 -11 -45 0
-13 -11 45 0
13 11 45 0
46 30 0
46 -21 0
-30 21 -46 0
47 46 0
47 5 0
-46 -5 -47 0
-48 45 0
-48 47 0
-45 -47 48 0
49 44 0
49 48 0
-44 -48 -49 0
-50 -33 0
-50 19 0
33 -19 50 0
-51 6 0
-51 50 0
-6 -50 51 0
27 -29 -52 0
-27 29 -52 0
27 29 52 0
-27 -29 52 0
-53 -6 0
-53 -14 0
6 14 53 0
54 52 0
54 53 0
-52 -53 -54 0
-55 51 0
-55 54 0
-51 -54 55 0
56 -49 0
56 -55 0
49 55 -56 0
57 45 0
57 46 0
-45 -46 -57 0
56 57 -58 0
-56 -57 -58 0
56 -57 58 0
-56 57 58 0
-59 -43 0
-59 58 0
43 -58 59 0
31 17 -60 0
-31 -17 -60 0
31 -17 60 0
-31 17 60 0
6 25 -61 0
-6 -25 -61 0
6 -25 61 0
-6 25 61 0
62 -60 0
62 -61 0
60 61 -62 0
63 -2 0
63 -5 0
2 5 -63 0
62 63 -64 0
-62 -63 -64 0
62 -63 64 0
-62 63 64 0
-14 -1 -65 0
14 1 -65 0
-14 1 65 0
14 -1 65 0
66 20 0
66 65 0
-20 -65 -66 0
-60 1 -67 0
60 -1 -67 0
-60 -1 67 0
60 1 67 0
-68 66 0
-68 67 0
-66 -67 68 0
69 -39 0
69 -68 0
39 68 -69 0
-69 -70 -71 0
69 70 -71 0
-69 70 71 0
69 -70 71 0
64 71 -72 0
-64 -71 -72 0
64 -71 72 0
-64 71 72 0
73 10 0
73 27 0
-10 -27 -73 0
74 -72 0
74 -73 0
72 73 -74 0
-75 -17 0
-75 -7 0
17 7 75 0
74 75 -76 0
-74 -75 -76 0
74 -75 76 0
-74 75 76 0
-77 4 0
-77 3 0
-4 -3 77 0
77 32 -78 0
-77 -32 -78 0
77 -32 78 0
-77 32 78 0
79 17 0
79 -5 0
-17 5 -79 0
-80 -24 0
-80 -79 0
24 79 80 0
52 60 -81 0
-52 -60 -81 0
52 -60 81 0
-52 60 81 0
82 81 0
82 17 0
-81 -17 -82 0
83 80 0
83 82 0
-80 -82 -83 0
84 78 0
84 -83 0
-78 83 -84 0
85 29 0
85 -29 0
-86 84 0
-86 -85 0
-84 85 86 0
-76 -86 -87 0
76 86 -87 0
-76 86 87 0
76 -86 87 0
-88 30 0
-88 -23 0
-30 23 88 0
87 88 -89 0
-87 -88 -89 0
87 -88 89 0
-87 88 89 0
90 -59 0
90 89 0
59 -89 -90 0
91 -17 0
91 5 0
17 -5 -91 0
-92 61 0
-92 38 0
-61 -38 92 0
-92 -31 -93 0
92 31 -93 0
-92 31 93 0
92 -31 93 0
-94 -11 0
-94 10 0
11 -10 94 0
-13 -79 -95 0
13 79 -95 0
-13 79 95 0
13 -79 95 0
-94 95 -96 0
94 -95 -96 0
-94 -95 96 0
94 95 96 0
-97 46 0
-97 1 0
-46 -1 97 0
-98 3 0
-98 97 0
-3 -97 98 0
24 39 -99 0
-24 -39 -99 0
24 -39 99 0
-24 39 99 0
98 -99 -100 0
-98 99 -100 0
98 99 100 0
-98 -99 100 0
-101 -96 0
-101 -100 0
96 100 101 0
102 93 0
102 101 0
-93 -101 -102 0
47 8 -103 0
-47 -8 -103 0
47 -8 103 0
-47 8 103 0
104 -30 0
104 29 0
30 -29 -104 0
103 -104 -105 0
-103 104 -105 0
103 104 105 0
-103 -104 105 0
-106 -102 0
-106 105 0
102 -105 106 0
-107 -91 0
-107 106 0
91 -106 107 0
90 107 -108 0
-90 -107 -108 0
90 -107 108 0
-90 107 108 0
-109 42 0
-109 108 0
-42 -108 109 0
18 -58 0
-78 -15 100 -80 91 2 0
6 -97 -21 0
-96 36 40 3 0
104 -6 -41 -64 85 76 0
2 -101 0
-12 -27 63 0
66 27 0
16 76 38 -18 0
44 -34 0
-29 108 -37 31 64 -69 0
-16 -107 -89 38 0
-58 94 22 0
-67 100 -4 90 0
88 -72 -50 -101 39 -1 0
68 -27 -25 0
-5 60 69 -15 -104 4 0
82 -63 49 0
20 69 0
-68 -54 -89 84 0
29 22 -75 49 0
103 -84 0
-44 -1 45 -67 -69 -66 0
-100 -45 0
32 42 82 0
24 80 60 0
3 -43 0
83 72 33 -82 -45 0
40 89 -54 -72 41 0
-58 70 32 0
-5 -48 0
37 -61 0
-17 33 0
62 31 0
93 95 0
52 39 0
-79 -29 87 -13 -27 80 0
-91 -56 -57 -67 0
-23 -109 29 -20 -1 0
11 -45 79 -14 -35 27 0
-96 -101 0
-28 -30 55 0
-84 16 -38 0
57 56 -108 51 0
63 56 -77 22 -84 0
-86 -46 -106 -67 66 0
-37 -67 -65 0
109 0
